Optimal - objective value 13.00000000
      0 y_0_1                    0                       0
      1 y_1_2                    0                       0
      2 y_2_3                    1                       5
      3 y_0_3                    0                       0
      4 y_0_2                    1                       8
      5 y_1_3                    0                       8
      6 f_0_0_1_0                0                     0.5
      7 f_0_0_3_0                0                      10
      8 f_0_0_2_0                5                       0
      9 f_0_2_3_1                5                       0
     10 f_0_0_3_1                0                      10
     11 f_0_1_3_1                0                       0
